%%MatrixMarket matrix coordinate integer general
%% Field: GF(2)

36 72 144
1 3 1
1 5 1
1 31 1
1 39 1
1 41 1
1 67 1
2 4 1
2 6 1
2 32 1
2 40 1
2 42 1
2 68 1
3 1 1
3 5 1
3 33 1
3 37 1
3 41 1
3 69 1
4 2 1
4 6 1
4 34 1
4 38 1
4 42 1
4 70 1
5 1 1
5 3 1
5 35 1
5 37 1
5 39 1
5 71 1
6 2 1
6 4 1
6 36 1
6 38 1
6 40 1
6 72 1
7 1 1
7 9 1
7 11 1
7 37 1
7 45 1
7 47 1
8 2 1
8 10 1
8 12 1
8 38 1
8 46 1
8 48 1
9 3 1
9 7 1
9 11 1
9 39 1
9 43 1
9 47 1
10 4 1
10 8 1
10 12 1
10 40 1
10 44 1
10 48 1
11 5 1
11 7 1
11 9 1
11 41 1
11 43 1
11 45 1
12 6 1
12 8 1
12 10 1
12 42 1
12 44 1
12 46 1
13 7 1
13 15 1
13 17 1
13 43 1
13 51 1
13 53 1
14 8 1
14 16 1
14 18 1
14 44 1
14 52 1
14 54 1
15 9 1
15 13 1
15 17 1
15 45 1
15 49 1
15 53 1
16 10 1
16 14 1
16 18 1
16 46 1
16 50 1
16 54 1
17 11 1
17 13 1
17 15 1
17 47 1
17 49 1
17 51 1
18 12 1
18 14 1
18 16 1
18 48 1
18 50 1
18 52 1
19 13 1
19 21 1
19 23 1
19 49 1
19 57 1
19 59 1
20 14 1
20 22 1
20 24 1
20 50 1
20 58 1
20 60 1
21 15 1
21 19 1
21 23 1
21 51 1
21 55 1
21 59 1
22 16 1
22 20 1
22 24 1
22 52 1
22 56 1
22 60 1
23 17 1
23 19 1
23 21 1
23 53 1
23 55 1
23 57 1
24 18 1
24 20 1
24 22 1
24 54 1
24 56 1
24 58 1
25 19 1
25 27 1
25 29 1
25 55 1
25 63 1
25 65 1
26 20 1
26 28 1
26 30 1
26 56 1
26 64 1
26 66 1
27 21 1
27 25 1
27 29 1
27 57 1
27 61 1
27 65 1
28 22 1
28 26 1
28 30 1
28 58 1
28 62 1
28 66 1
29 23 1
29 25 1
29 27 1
29 59 1
29 61 1
29 63 1
30 24 1
30 26 1
30 28 1
30 60 1
30 62 1
30 64 1
31 25 1
31 33 1
31 35 1
31 61 1
31 69 1
31 71 1
32 26 1
32 34 1
32 36 1
32 62 1
32 70 1
32 72 1
33 27 1
33 31 1
33 35 1
33 63 1
33 67 1
33 71 1
34 28 1
34 32 1
34 36 1
34 64 1
34 68 1
34 72 1
35 29 1
35 31 1
35 33 1
35 65 1
35 67 1
35 69 1
36 30 1
36 32 1
36 34 1
36 66 1
36 68 1
36 70 1
