%%MatrixMarket matrix coordinate integer general
%% Field: GF(2)

36 72 144
1 3 1
1 5 1
1 7 1
1 39 1
1 41 1
1 43 1
2 4 1
2 6 1
2 8 1
2 40 1
2 42 1
2 44 1
3 1 1
3 5 1
3 9 1
3 37 1
3 41 1
3 45 1
4 2 1
4 6 1
4 10 1
4 38 1
4 42 1
4 46 1
5 1 1
5 3 1
5 11 1
5 37 1
5 39 1
5 47 1
6 2 1
6 4 1
6 12 1
6 38 1
6 40 1
6 48 1
7 9 1
7 11 1
7 13 1
7 45 1
7 47 1
7 49 1
8 10 1
8 12 1
8 14 1
8 46 1
8 48 1
8 50 1
9 7 1
9 11 1
9 15 1
9 43 1
9 47 1
9 51 1
10 8 1
10 12 1
10 16 1
10 44 1
10 48 1
10 52 1
11 7 1
11 9 1
11 17 1
11 43 1
11 45 1
11 53 1
12 8 1
12 10 1
12 18 1
12 44 1
12 46 1
12 54 1
13 15 1
13 17 1
13 19 1
13 51 1
13 53 1
13 55 1
14 16 1
14 18 1
14 20 1
14 52 1
14 54 1
14 56 1
15 13 1
15 17 1
15 21 1
15 49 1
15 53 1
15 57 1
16 14 1
16 18 1
16 22 1
16 50 1
16 54 1
16 58 1
17 13 1
17 15 1
17 23 1
17 49 1
17 51 1
17 59 1
18 14 1
18 16 1
18 24 1
18 50 1
18 52 1
18 60 1
19 21 1
19 23 1
19 25 1
19 57 1
19 59 1
19 61 1
20 22 1
20 24 1
20 26 1
20 58 1
20 60 1
20 62 1
21 19 1
21 23 1
21 27 1
21 55 1
21 59 1
21 63 1
22 20 1
22 24 1
22 28 1
22 56 1
22 60 1
22 64 1
23 19 1
23 21 1
23 29 1
23 55 1
23 57 1
23 65 1
24 20 1
24 22 1
24 30 1
24 56 1
24 58 1
24 66 1
25 27 1
25 29 1
25 31 1
25 63 1
25 65 1
25 67 1
26 28 1
26 30 1
26 32 1
26 64 1
26 66 1
26 68 1
27 25 1
27 29 1
27 33 1
27 61 1
27 65 1
27 69 1
28 26 1
28 30 1
28 34 1
28 62 1
28 66 1
28 70 1
29 25 1
29 27 1
29 35 1
29 61 1
29 63 1
29 71 1
30 26 1
30 28 1
30 36 1
30 62 1
30 64 1
30 72 1
31 1 1
31 33 1
31 35 1
31 37 1
31 69 1
31 71 1
32 2 1
32 34 1
32 36 1
32 38 1
32 70 1
32 72 1
33 3 1
33 31 1
33 35 1
33 39 1
33 67 1
33 71 1
34 4 1
34 32 1
34 36 1
34 40 1
34 68 1
34 72 1
35 5 1
35 31 1
35 33 1
35 41 1
35 67 1
35 69 1
36 6 1
36 32 1
36 34 1
36 42 1
36 68 1
36 70 1
