%%MatrixMarket matrix coordinate integer general
%% Field: GF(2)

144 288 576
1 10 1
1 13 1
1 25 1
1 150 1
1 155 1
1 181 1
2 11 1
2 14 1
2 26 1
2 151 1
2 156 1
2 182 1
3 12 1
3 15 1
3 27 1
3 145 1
3 152 1
3 183 1
4 1 1
4 16 1
4 28 1
4 146 1
4 153 1
4 184 1
5 2 1
5 17 1
5 29 1
5 147 1
5 154 1
5 185 1
6 3 1
6 18 1
6 30 1
6 148 1
6 155 1
6 186 1
7 4 1
7 19 1
7 31 1
7 149 1
7 156 1
7 187 1
8 5 1
8 20 1
8 32 1
8 145 1
8 150 1
8 188 1
9 6 1
9 21 1
9 33 1
9 146 1
9 151 1
9 189 1
10 7 1
10 22 1
10 34 1
10 147 1
10 152 1
10 190 1
11 8 1
11 23 1
11 35 1
11 148 1
11 153 1
11 191 1
12 9 1
12 24 1
12 36 1
12 149 1
12 154 1
12 192 1
13 22 1
13 25 1
13 37 1
13 162 1
13 167 1
13 193 1
14 23 1
14 26 1
14 38 1
14 163 1
14 168 1
14 194 1
15 24 1
15 27 1
15 39 1
15 157 1
15 164 1
15 195 1
16 13 1
16 28 1
16 40 1
16 158 1
16 165 1
16 196 1
17 14 1
17 29 1
17 41 1
17 159 1
17 166 1
17 197 1
18 15 1
18 30 1
18 42 1
18 160 1
18 167 1
18 198 1
19 16 1
19 31 1
19 43 1
19 161 1
19 168 1
19 199 1
20 17 1
20 32 1
20 44 1
20 157 1
20 162 1
20 200 1
21 18 1
21 33 1
21 45 1
21 158 1
21 163 1
21 201 1
22 19 1
22 34 1
22 46 1
22 159 1
22 164 1
22 202 1
23 20 1
23 35 1
23 47 1
23 160 1
23 165 1
23 203 1
24 21 1
24 36 1
24 48 1
24 161 1
24 166 1
24 204 1
25 34 1
25 37 1
25 49 1
25 174 1
25 179 1
25 205 1
26 35 1
26 38 1
26 50 1
26 175 1
26 180 1
26 206 1
27 36 1
27 39 1
27 51 1
27 169 1
27 176 1
27 207 1
28 25 1
28 40 1
28 52 1
28 170 1
28 177 1
28 208 1
29 26 1
29 41 1
29 53 1
29 171 1
29 178 1
29 209 1
30 27 1
30 42 1
30 54 1
30 172 1
30 179 1
30 210 1
31 28 1
31 43 1
31 55 1
31 173 1
31 180 1
31 211 1
32 29 1
32 44 1
32 56 1
32 169 1
32 174 1
32 212 1
33 30 1
33 45 1
33 57 1
33 170 1
33 175 1
33 213 1
34 31 1
34 46 1
34 58 1
34 171 1
34 176 1
34 214 1
35 32 1
35 47 1
35 59 1
35 172 1
35 177 1
35 215 1
36 33 1
36 48 1
36 60 1
36 173 1
36 178 1
36 216 1
37 46 1
37 49 1
37 61 1
37 186 1
37 191 1
37 217 1
38 47 1
38 50 1
38 62 1
38 187 1
38 192 1
38 218 1
39 48 1
39 51 1
39 63 1
39 181 1
39 188 1
39 219 1
40 37 1
40 52 1
40 64 1
40 182 1
40 189 1
40 220 1
41 38 1
41 53 1
41 65 1
41 183 1
41 190 1
41 221 1
42 39 1
42 54 1
42 66 1
42 184 1
42 191 1
42 222 1
43 40 1
43 55 1
43 67 1
43 185 1
43 192 1
43 223 1
44 41 1
44 56 1
44 68 1
44 181 1
44 186 1
44 224 1
45 42 1
45 57 1
45 69 1
45 182 1
45 187 1
45 225 1
46 43 1
46 58 1
46 70 1
46 183 1
46 188 1
46 226 1
47 44 1
47 59 1
47 71 1
47 184 1
47 189 1
47 227 1
48 45 1
48 60 1
48 72 1
48 185 1
48 190 1
48 228 1
49 58 1
49 61 1
49 73 1
49 198 1
49 203 1
49 229 1
50 59 1
50 62 1
50 74 1
50 199 1
50 204 1
50 230 1
51 60 1
51 63 1
51 75 1
51 193 1
51 200 1
51 231 1
52 49 1
52 64 1
52 76 1
52 194 1
52 201 1
52 232 1
53 50 1
53 65 1
53 77 1
53 195 1
53 202 1
53 233 1
54 51 1
54 66 1
54 78 1
54 196 1
54 203 1
54 234 1
55 52 1
55 67 1
55 79 1
55 197 1
55 204 1
55 235 1
56 53 1
56 68 1
56 80 1
56 193 1
56 198 1
56 236 1
57 54 1
57 69 1
57 81 1
57 194 1
57 199 1
57 237 1
58 55 1
58 70 1
58 82 1
58 195 1
58 200 1
58 238 1
59 56 1
59 71 1
59 83 1
59 196 1
59 201 1
59 239 1
60 57 1
60 72 1
60 84 1
60 197 1
60 202 1
60 240 1
61 70 1
61 73 1
61 85 1
61 210 1
61 215 1
61 241 1
62 71 1
62 74 1
62 86 1
62 211 1
62 216 1
62 242 1
63 72 1
63 75 1
63 87 1
63 205 1
63 212 1
63 243 1
64 61 1
64 76 1
64 88 1
64 206 1
64 213 1
64 244 1
65 62 1
65 77 1
65 89 1
65 207 1
65 214 1
65 245 1
66 63 1
66 78 1
66 90 1
66 208 1
66 215 1
66 246 1
67 64 1
67 79 1
67 91 1
67 209 1
67 216 1
67 247 1
68 65 1
68 80 1
68 92 1
68 205 1
68 210 1
68 248 1
69 66 1
69 81 1
69 93 1
69 206 1
69 211 1
69 249 1
70 67 1
70 82 1
70 94 1
70 207 1
70 212 1
70 250 1
71 68 1
71 83 1
71 95 1
71 208 1
71 213 1
71 251 1
72 69 1
72 84 1
72 96 1
72 209 1
72 214 1
72 252 1
73 82 1
73 85 1
73 97 1
73 222 1
73 227 1
73 253 1
74 83 1
74 86 1
74 98 1
74 223 1
74 228 1
74 254 1
75 84 1
75 87 1
75 99 1
75 217 1
75 224 1
75 255 1
76 73 1
76 88 1
76 100 1
76 218 1
76 225 1
76 256 1
77 74 1
77 89 1
77 101 1
77 219 1
77 226 1
77 257 1
78 75 1
78 90 1
78 102 1
78 220 1
78 227 1
78 258 1
79 76 1
79 91 1
79 103 1
79 221 1
79 228 1
79 259 1
80 77 1
80 92 1
80 104 1
80 217 1
80 222 1
80 260 1
81 78 1
81 93 1
81 105 1
81 218 1
81 223 1
81 261 1
82 79 1
82 94 1
82 106 1
82 219 1
82 224 1
82 262 1
83 80 1
83 95 1
83 107 1
83 220 1
83 225 1
83 263 1
84 81 1
84 96 1
84 108 1
84 221 1
84 226 1
84 264 1
85 94 1
85 97 1
85 109 1
85 234 1
85 239 1
85 265 1
86 95 1
86 98 1
86 110 1
86 235 1
86 240 1
86 266 1
87 96 1
87 99 1
87 111 1
87 229 1
87 236 1
87 267 1
88 85 1
88 100 1
88 112 1
88 230 1
88 237 1
88 268 1
89 86 1
89 101 1
89 113 1
89 231 1
89 238 1
89 269 1
90 87 1
90 102 1
90 114 1
90 232 1
90 239 1
90 270 1
91 88 1
91 103 1
91 115 1
91 233 1
91 240 1
91 271 1
92 89 1
92 104 1
92 116 1
92 229 1
92 234 1
92 272 1
93 90 1
93 105 1
93 117 1
93 230 1
93 235 1
93 273 1
94 91 1
94 106 1
94 118 1
94 231 1
94 236 1
94 274 1
95 92 1
95 107 1
95 119 1
95 232 1
95 237 1
95 275 1
96 93 1
96 108 1
96 120 1
96 233 1
96 238 1
96 276 1
97 106 1
97 109 1
97 121 1
97 246 1
97 251 1
97 277 1
98 107 1
98 110 1
98 122 1
98 247 1
98 252 1
98 278 1
99 108 1
99 111 1
99 123 1
99 241 1
99 248 1
99 279 1
100 97 1
100 112 1
100 124 1
100 242 1
100 249 1
100 280 1
101 98 1
101 113 1
101 125 1
101 243 1
101 250 1
101 281 1
102 99 1
102 114 1
102 126 1
102 244 1
102 251 1
102 282 1
103 100 1
103 115 1
103 127 1
103 245 1
103 252 1
103 283 1
104 101 1
104 116 1
104 128 1
104 241 1
104 246 1
104 284 1
105 102 1
105 117 1
105 129 1
105 242 1
105 247 1
105 285 1
106 103 1
106 118 1
106 130 1
106 243 1
106 248 1
106 286 1
107 104 1
107 119 1
107 131 1
107 244 1
107 249 1
107 287 1
108 105 1
108 120 1
108 132 1
108 245 1
108 250 1
108 288 1
109 118 1
109 121 1
109 133 1
109 145 1
109 258 1
109 263 1
110 119 1
110 122 1
110 134 1
110 146 1
110 259 1
110 264 1
111 120 1
111 123 1
111 135 1
111 147 1
111 253 1
111 260 1
112 109 1
112 124 1
112 136 1
112 148 1
112 254 1
112 261 1
113 110 1
113 125 1
113 137 1
113 149 1
113 255 1
113 262 1
114 111 1
114 126 1
114 138 1
114 150 1
114 256 1
114 263 1
115 112 1
115 127 1
115 139 1
115 151 1
115 257 1
115 264 1
116 113 1
116 128 1
116 140 1
116 152 1
116 253 1
116 258 1
117 114 1
117 129 1
117 141 1
117 153 1
117 254 1
117 259 1
118 115 1
118 130 1
118 142 1
118 154 1
118 255 1
118 260 1
119 116 1
119 131 1
119 143 1
119 155 1
119 256 1
119 261 1
120 117 1
120 132 1
120 144 1
120 156 1
120 257 1
120 262 1
121 1 1
121 130 1
121 133 1
121 157 1
121 270 1
121 275 1
122 2 1
122 131 1
122 134 1
122 158 1
122 271 1
122 276 1
123 3 1
123 132 1
123 135 1
123 159 1
123 265 1
123 272 1
124 4 1
124 121 1
124 136 1
124 160 1
124 266 1
124 273 1
125 5 1
125 122 1
125 137 1
125 161 1
125 267 1
125 274 1
126 6 1
126 123 1
126 138 1
126 162 1
126 268 1
126 275 1
127 7 1
127 124 1
127 139 1
127 163 1
127 269 1
127 276 1
128 8 1
128 125 1
128 140 1
128 164 1
128 265 1
128 270 1
129 9 1
129 126 1
129 141 1
129 165 1
129 266 1
129 271 1
130 10 1
130 127 1
130 142 1
130 166 1
130 267 1
130 272 1
131 11 1
131 128 1
131 143 1
131 167 1
131 268 1
131 273 1
132 12 1
132 129 1
132 144 1
132 168 1
132 269 1
132 274 1
133 1 1
133 13 1
133 142 1
133 169 1
133 282 1
133 287 1
134 2 1
134 14 1
134 143 1
134 170 1
134 283 1
134 288 1
135 3 1
135 15 1
135 144 1
135 171 1
135 277 1
135 284 1
136 4 1
136 16 1
136 133 1
136 172 1
136 278 1
136 285 1
137 5 1
137 17 1
137 134 1
137 173 1
137 279 1
137 286 1
138 6 1
138 18 1
138 135 1
138 174 1
138 280 1
138 287 1
139 7 1
139 19 1
139 136 1
139 175 1
139 281 1
139 288 1
140 8 1
140 20 1
140 137 1
140 176 1
140 277 1
140 282 1
141 9 1
141 21 1
141 138 1
141 177 1
141 278 1
141 283 1
142 10 1
142 22 1
142 139 1
142 178 1
142 279 1
142 284 1
143 11 1
143 23 1
143 140 1
143 179 1
143 280 1
143 285 1
144 12 1
144 24 1
144 141 1
144 180 1
144 281 1
144 286 1
