%%MatrixMarket matrix coordinate integer general
%% Field: GF(2)

144 288 576
1 3 1
1 8 1
1 109 1
1 148 1
1 265 1
1 277 1
2 4 1
2 9 1
2 110 1
2 149 1
2 266 1
2 278 1
3 5 1
3 10 1
3 111 1
3 150 1
3 267 1
3 279 1
4 6 1
4 11 1
4 112 1
4 151 1
4 268 1
4 280 1
5 7 1
5 12 1
5 113 1
5 152 1
5 269 1
5 281 1
6 1 1
6 8 1
6 114 1
6 153 1
6 270 1
6 282 1
7 2 1
7 9 1
7 115 1
7 154 1
7 271 1
7 283 1
8 3 1
8 10 1
8 116 1
8 155 1
8 272 1
8 284 1
9 4 1
9 11 1
9 117 1
9 156 1
9 273 1
9 285 1
10 5 1
10 12 1
10 118 1
10 145 1
10 274 1
10 286 1
11 1 1
11 6 1
11 119 1
11 146 1
11 275 1
11 287 1
12 2 1
12 7 1
12 120 1
12 147 1
12 276 1
12 288 1
13 15 1
13 20 1
13 121 1
13 145 1
13 160 1
13 277 1
14 16 1
14 21 1
14 122 1
14 146 1
14 161 1
14 278 1
15 17 1
15 22 1
15 123 1
15 147 1
15 162 1
15 279 1
16 18 1
16 23 1
16 124 1
16 148 1
16 163 1
16 280 1
17 19 1
17 24 1
17 125 1
17 149 1
17 164 1
17 281 1
18 13 1
18 20 1
18 126 1
18 150 1
18 165 1
18 282 1
19 14 1
19 21 1
19 127 1
19 151 1
19 166 1
19 283 1
20 15 1
20 22 1
20 128 1
20 152 1
20 167 1
20 284 1
21 16 1
21 23 1
21 129 1
21 153 1
21 168 1
21 285 1
22 17 1
22 24 1
22 130 1
22 154 1
22 157 1
22 286 1
23 13 1
23 18 1
23 131 1
23 155 1
23 158 1
23 287 1
24 14 1
24 19 1
24 132 1
24 156 1
24 159 1
24 288 1
25 27 1
25 32 1
25 133 1
25 145 1
25 157 1
25 172 1
26 28 1
26 33 1
26 134 1
26 146 1
26 158 1
26 173 1
27 29 1
27 34 1
27 135 1
27 147 1
27 159 1
27 174 1
28 30 1
28 35 1
28 136 1
28 148 1
28 160 1
28 175 1
29 31 1
29 36 1
29 137 1
29 149 1
29 161 1
29 176 1
30 25 1
30 32 1
30 138 1
30 150 1
30 162 1
30 177 1
31 26 1
31 33 1
31 139 1
31 151 1
31 163 1
31 178 1
32 27 1
32 34 1
32 140 1
32 152 1
32 164 1
32 179 1
33 28 1
33 35 1
33 141 1
33 153 1
33 165 1
33 180 1
34 29 1
34 36 1
34 142 1
34 154 1
34 166 1
34 169 1
35 25 1
35 30 1
35 143 1
35 155 1
35 167 1
35 170 1
36 26 1
36 31 1
36 144 1
36 156 1
36 168 1
36 171 1
37 1 1
37 39 1
37 44 1
37 157 1
37 169 1
37 184 1
38 2 1
38 40 1
38 45 1
38 158 1
38 170 1
38 185 1
39 3 1
39 41 1
39 46 1
39 159 1
39 171 1
39 186 1
40 4 1
40 42 1
40 47 1
40 160 1
40 172 1
40 187 1
41 5 1
41 43 1
41 48 1
41 161 1
41 173 1
41 188 1
42 6 1
42 37 1
42 44 1
42 162 1
42 174 1
42 189 1
43 7 1
43 38 1
43 45 1
43 163 1
43 175 1
43 190 1
44 8 1
44 39 1
44 46 1
44 164 1
44 176 1
44 191 1
45 9 1
45 40 1
45 47 1
45 165 1
45 177 1
45 192 1
46 10 1
46 41 1
46 48 1
46 166 1
46 178 1
46 181 1
47 11 1
47 37 1
47 42 1
47 167 1
47 179 1
47 182 1
48 12 1
48 38 1
48 43 1
48 168 1
48 180 1
48 183 1
49 13 1
49 51 1
49 56 1
49 169 1
49 181 1
49 196 1
50 14 1
50 52 1
50 57 1
50 170 1
50 182 1
50 197 1
51 15 1
51 53 1
51 58 1
51 171 1
51 183 1
51 198 1
52 16 1
52 54 1
52 59 1
52 172 1
52 184 1
52 199 1
53 17 1
53 55 1
53 60 1
53 173 1
53 185 1
53 200 1
54 18 1
54 49 1
54 56 1
54 174 1
54 186 1
54 201 1
55 19 1
55 50 1
55 57 1
55 175 1
55 187 1
55 202 1
56 20 1
56 51 1
56 58 1
56 176 1
56 188 1
56 203 1
57 21 1
57 52 1
57 59 1
57 177 1
57 189 1
57 204 1
58 22 1
58 53 1
58 60 1
58 178 1
58 190 1
58 193 1
59 23 1
59 49 1
59 54 1
59 179 1
59 191 1
59 194 1
60 24 1
60 50 1
60 55 1
60 180 1
60 192 1
60 195 1
61 25 1
61 63 1
61 68 1
61 181 1
61 193 1
61 208 1
62 26 1
62 64 1
62 69 1
62 182 1
62 194 1
62 209 1
63 27 1
63 65 1
63 70 1
63 183 1
63 195 1
63 210 1
64 28 1
64 66 1
64 71 1
64 184 1
64 196 1
64 211 1
65 29 1
65 67 1
65 72 1
65 185 1
65 197 1
65 212 1
66 30 1
66 61 1
66 68 1
66 186 1
66 198 1
66 213 1
67 31 1
67 62 1
67 69 1
67 187 1
67 199 1
67 214 1
68 32 1
68 63 1
68 70 1
68 188 1
68 200 1
68 215 1
69 33 1
69 64 1
69 71 1
69 189 1
69 201 1
69 216 1
70 34 1
70 65 1
70 72 1
70 190 1
70 202 1
70 205 1
71 35 1
71 61 1
71 66 1
71 191 1
71 203 1
71 206 1
72 36 1
72 62 1
72 67 1
72 192 1
72 204 1
72 207 1
73 37 1
73 75 1
73 80 1
73 193 1
73 205 1
73 220 1
74 38 1
74 76 1
74 81 1
74 194 1
74 206 1
74 221 1
75 39 1
75 77 1
75 82 1
75 195 1
75 207 1
75 222 1
76 40 1
76 78 1
76 83 1
76 196 1
76 208 1
76 223 1
77 41 1
77 79 1
77 84 1
77 197 1
77 209 1
77 224 1
78 42 1
78 73 1
78 80 1
78 198 1
78 210 1
78 225 1
79 43 1
79 74 1
79 81 1
79 199 1
79 211 1
79 226 1
80 44 1
80 75 1
80 82 1
80 200 1
80 212 1
80 227 1
81 45 1
81 76 1
81 83 1
81 201 1
81 213 1
81 228 1
82 46 1
82 77 1
82 84 1
82 202 1
82 214 1
82 217 1
83 47 1
83 73 1
83 78 1
83 203 1
83 215 1
83 218 1
84 48 1
84 74 1
84 79 1
84 204 1
84 216 1
84 219 1
85 49 1
85 87 1
85 92 1
85 205 1
85 217 1
85 232 1
86 50 1
86 88 1
86 93 1
86 206 1
86 218 1
86 233 1
87 51 1
87 89 1
87 94 1
87 207 1
87 219 1
87 234 1
88 52 1
88 90 1
88 95 1
88 208 1
88 220 1
88 235 1
89 53 1
89 91 1
89 96 1
89 209 1
89 221 1
89 236 1
90 54 1
90 85 1
90 92 1
90 210 1
90 222 1
90 237 1
91 55 1
91 86 1
91 93 1
91 211 1
91 223 1
91 238 1
92 56 1
92 87 1
92 94 1
92 212 1
92 224 1
92 239 1
93 57 1
93 88 1
93 95 1
93 213 1
93 225 1
93 240 1
94 58 1
94 89 1
94 96 1
94 214 1
94 226 1
94 229 1
95 59 1
95 85 1
95 90 1
95 215 1
95 227 1
95 230 1
96 60 1
96 86 1
96 91 1
96 216 1
96 228 1
96 231 1
97 61 1
97 99 1
97 104 1
97 217 1
97 229 1
97 244 1
98 62 1
98 100 1
98 105 1
98 218 1
98 230 1
98 245 1
99 63 1
99 101 1
99 106 1
99 219 1
99 231 1
99 246 1
100 64 1
100 102 1
100 107 1
100 220 1
100 232 1
100 247 1
101 65 1
101 103 1
101 108 1
101 221 1
101 233 1
101 248 1
102 66 1
102 97 1
102 104 1
102 222 1
102 234 1
102 249 1
103 67 1
103 98 1
103 105 1
103 223 1
103 235 1
103 250 1
104 68 1
104 99 1
104 106 1
104 224 1
104 236 1
104 251 1
105 69 1
105 100 1
105 107 1
105 225 1
105 237 1
105 252 1
106 70 1
106 101 1
106 108 1
106 226 1
106 238 1
106 241 1
107 71 1
107 97 1
107 102 1
107 227 1
107 239 1
107 242 1
108 72 1
108 98 1
108 103 1
108 228 1
108 240 1
108 243 1
109 73 1
109 111 1
109 116 1
109 229 1
109 241 1
109 256 1
110 74 1
110 112 1
110 117 1
110 230 1
110 242 1
110 257 1
111 75 1
111 113 1
111 118 1
111 231 1
111 243 1
111 258 1
112 76 1
112 114 1
112 119 1
112 232 1
112 244 1
112 259 1
113 77 1
113 115 1
113 120 1
113 233 1
113 245 1
113 260 1
114 78 1
114 109 1
114 116 1
114 234 1
114 246 1
114 261 1
115 79 1
115 110 1
115 117 1
115 235 1
115 247 1
115 262 1
116 80 1
116 111 1
116 118 1
116 236 1
116 248 1
116 263 1
117 81 1
117 112 1
117 119 1
117 237 1
117 249 1
117 264 1
118 82 1
118 113 1
118 120 1
118 238 1
118 250 1
118 253 1
119 83 1
119 109 1
119 114 1
119 239 1
119 251 1
119 254 1
120 84 1
120 110 1
120 115 1
120 240 1
120 252 1
120 255 1
121 85 1
121 123 1
121 128 1
121 241 1
121 253 1
121 268 1
122 86 1
122 124 1
122 129 1
122 242 1
122 254 1
122 269 1
123 87 1
123 125 1
123 130 1
123 243 1
123 255 1
123 270 1
124 88 1
124 126 1
124 131 1
124 244 1
124 256 1
124 271 1
125 89 1
125 127 1
125 132 1
125 245 1
125 257 1
125 272 1
126 90 1
126 121 1
126 128 1
126 246 1
126 258 1
126 273 1
127 91 1
127 122 1
127 129 1
127 247 1
127 259 1
127 274 1
128 92 1
128 123 1
128 130 1
128 248 1
128 260 1
128 275 1
129 93 1
129 124 1
129 131 1
129 249 1
129 261 1
129 276 1
130 94 1
130 125 1
130 132 1
130 250 1
130 262 1
130 265 1
131 95 1
131 121 1
131 126 1
131 251 1
131 263 1
131 266 1
132 96 1
132 122 1
132 127 1
132 252 1
132 264 1
132 267 1
133 97 1
133 135 1
133 140 1
133 253 1
133 265 1
133 280 1
134 98 1
134 136 1
134 141 1
134 254 1
134 266 1
134 281 1
135 99 1
135 137 1
135 142 1
135 255 1
135 267 1
135 282 1
136 100 1
136 138 1
136 143 1
136 256 1
136 268 1
136 283 1
137 101 1
137 139 1
137 144 1
137 257 1
137 269 1
137 284 1
138 102 1
138 133 1
138 140 1
138 258 1
138 270 1
138 285 1
139 103 1
139 134 1
139 141 1
139 259 1
139 271 1
139 286 1
140 104 1
140 135 1
140 142 1
140 260 1
140 272 1
140 287 1
141 105 1
141 136 1
141 143 1
141 261 1
141 273 1
141 288 1
142 106 1
142 137 1
142 144 1
142 262 1
142 274 1
142 277 1
143 107 1
143 133 1
143 138 1
143 263 1
143 275 1
143 278 1
144 108 1
144 134 1
144 139 1
144 264 1
144 276 1
144 279 1
